50
23793

549 252
192 101
674 692
209 620
137 47
911 954
150 447
397 571
493 847
506 863
752 951
160 428
432 490
890 274
471 377
861 24
206 52
565 624
753 489
112 798
574 16
264 329
461 772
527 611
25 73
641 595
940 357
526 500
188 104
110 508
887 161
848 565
525 303
886 540
38 923
882 426
481 451
545 726
601 71
852 703
750 171
864 321
823 674
905 769
214 327
213 632
421 504
685 590
160 646
917 2
